NAME: concorde22
TYPE: TSP
COMMENT: Generated by CCutil_writetsplib
COMMENT: Write called for by Concorde GUI
DIMENSION: 22
EDGE_WEIGHT_TYPE: EUC_2D
NODE_COORD_SECTION
1 37.806330 50.599689
2 9.961241 20.337535
3 28.186895 70.415357
4 62.129582 6.183050
5 50.376904 42.796106
6 71.285134 43.671987
7 34.156316 49.113437
8 85.201575 71.837519
9 27.466659 1.394696
10 97.985778 44.746239
11 40.730003 98.400830
12 73.799860 61.076693
13 85.076449 17.029328
14 16.052736 11.899167
15 20.160527 67.238380
16 22.730186 99.725333
17 77.196570 88.503677
18 18.494217 31.971191
19 72.743919 16.071047
20 4.153569 41.981262
21 79.027680 95.034639
22 14.145329 40.690329
